ELEM#	 von Mises Stresses at 4 Integ_points
  1  2  3  4  5  6  7  8  9  10  11  12  13  14  15  16  17  18  19  20Output for Input Data from file mesh_coarse.txt
COARSE MESH WITH 20 elements

Plane Stress Analysis
 Node#    X-Displ         Y-Displ
    1     -3.5337E-05     -6.5819E-18
    2      1.8512E-18      1.7740E-18
    3      3.5337E-05     -3.5337E-06
    4     -7.6250E+00     -8.8731E+00
    5     -2.4899E-02     -6.9269E+00
    6      7.4752E+00     -8.6731E+00
    7     -1.4300E+01     -2.9850E+01
    8     -1.0000E-01     -3.0150E+01
    9      1.4500E+01     -3.0250E+01
   10     -2.0625E+01     -6.6223E+01
   11      1.7510E-01     -6.4377E+01
   12      2.0075E+01     -6.5623E+01
   13     -2.5200E+01     -1.1090E+02
   14     -4.0000E-01     -1.1150E+02
   15      2.6000E+01     -1.1170E+02
   16     -3.0625E+01     -1.6837E+02
   17      5.7510E-01     -1.6663E+02
   18      2.9275E+01     -1.6737E+02
   19     -3.2700E+01     -2.3035E+02
   20     -9.0001E-01     -2.3125E+02
   21      3.4500E+01     -2.3155E+02
   22     -3.7625E+01     -3.0252E+02
   23      1.1751E+00     -3.0088E+02
   24      3.5075E+01     -3.0112E+02
   25     -3.6800E+01     -3.7540E+02
   26     -1.6000E+00     -3.7660E+02
   27      4.0000E+01     -3.7700E+02
   28     -4.1625E+01     -4.5587E+02
   29      1.9751E+00     -4.5433E+02
   30      3.7475E+01     -4.5407E+02
   31     -3.7500E+01     -5.3325E+02
   32     -2.5000E+00     -5.3475E+02
   33      4.2500E+01     -5.3525E+02
  DOF#     Reaction
    1      1.0000E+04
    2      1.8626E-09
    3     -5.2386E-10
    4     -5.0202E-10
    5     -1.0000E+04
    6      1.0000E+03
ELEM#	 von Mises Stresses at 4 Integ_points
    1      3.8292E+06     2      3.7313E+06     3      3.3797E+06     4      3.4817E+06     5      3.0303E+06     6      2.9330E+06     7      2.5812E+06     8      2.6837E+06     9      2.2322E+06    10      2.1360E+06    11      1.7840E+06    12      1.8875E+06    13      1.4361E+06    14      1.3426E+06    15      9.9121E+05    16      1.0966E+06    17      6.5000E+05    18      5.6789E+05    19      2.5000E+05    20      3.5000E+05 